3067.95 0
0 58 44 43 38 40 47 49 50 48 42 45 41 57 0
0 94 96 95 93 75 88 90 0
0 146 143 141 148 140 147 142 84 89 138 139 144 149 0
0 129 133 73 72 67 116 121 0
0 136 130 131 118 125 120 127 29 37 27 0
0 18 21 22 28 33 19 0
0 52 59 53 0
0 63 56 54 62 60 55 64 0
0 106 111 97 110 102 0
0 137 80 92 79 83 78 82 81 91 86 87 85 77 76 0
0 135 115 123 119 124 113 114 117 122 128 126 134 132 0
0 20 35 26 31 32 30 23 24 25 34 36 0
0 61 69 71 70 68 65 74 66 39 46 51 0
0 109 98 104 15 4 10 3 9 17 5 16 2 150 100 107 0
0 112 105 103 99 108 101 7 8 11 12 13 14 1 6 145 0
